400 1582 
1 5 1
1 6 1
1 7 1
1 8 1
1 16 1
1 24 1
1 36 1
1 74 1
1 79 1
1 118 1
1 146 1
1 208 1
1 245 1
1 252 1
1 277 1
2 5 1
2 7 1
2 54 1
2 105 1
3 5 1
3 6 1
3 8 1
3 10 1
3 11 1
3 12 1
3 13 1
3 15 1
3 18 1
3 21 1
3 23 1
3 27 1
3 28 1
3 29 1
3 37 1
3 41 1
3 45 1
3 47 1
3 49 1
3 53 1
3 59 1
3 66 1
3 67 1
3 72 1
3 73 1
3 84 1
3 87 1
3 89 1
3 107 1
3 110 1
3 120 1
3 136 1
3 140 1
3 142 1
3 145 1
3 149 1
3 153 1
3 155 1
3 156 1
3 158 1
3 176 1
3 179 1
3 212 1
3 215 1
3 221 1
3 228 1
3 235 1
3 249 1
3 260 1
3 265 1
3 271 1
3 289 1
3 291 1
3 310 1
3 312 1
3 314 1
3 330 1
3 339 1
3 348 1
3 394 1
4 5 1
4 6 1
4 8 1
4 9 1
4 10 1
4 11 1
4 12 1
4 14 1
4 20 1
4 21 1
4 22 1
4 26 1
4 32 1
4 34 1
4 37 1
4 41 1
4 43 1
4 51 1
4 53 1
4 55 1
4 61 1
4 64 1
4 65 1
4 83 1
4 87 1
4 96 1
4 101 1
4 104 1
4 114 1
4 121 1
4 137 1
4 151 1
4 180 1
4 186 1
4 202 1
4 219 1
4 225 1
4 230 1
4 237 1
4 266 1
4 291 1
4 295 1
4 321 1
4 350 1
4 365 1
4 366 1
4 371 1
4 375 1
4 389 1
5 6 1
5 7 1
5 8 1
5 9 1
5 11 1
5 15 1
5 27 1
5 28 1
5 30 1
5 33 1
5 40 1
5 47 1
5 65 1
5 82 1
5 98 1
5 105 1
5 107 1
5 110 1
5 113 1
5 117 1
5 118 1
5 126 1
5 127 1
5 129 1
5 138 1
5 140 1
5 152 1
5 172 1
5 181 1
5 186 1
5 194 1
5 207 1
5 213 1
5 224 1
5 225 1
5 244 1
5 246 1
5 253 1
5 255 1
5 267 1
5 279 1
5 280 1
5 314 1
5 320 1
5 325 1
5 326 1
5 335 1
5 364 1
5 380 1
6 7 1
6 9 1
6 10 1
6 11 1
6 12 1
6 14 1
6 15 1
6 16 1
6 17 1
6 18 1
6 19 1
6 20 1
6 22 1
6 23 1
6 25 1
6 26 1
6 31 1
6 35 1
6 38 1
6 46 1
6 50 1
6 57 1
6 59 1
6 62 1
6 65 1
6 76 1
6 79 1
6 81 1
6 84 1
6 85 1
6 89 1
6 90 1
6 92 1
6 93 1
6 94 1
6 97 1
6 114 1
6 119 1
6 142 1
6 150 1
6 161 1
6 172 1
6 174 1
6 192 1
6 197 1
6 221 1
6 233 1
6 244 1
6 263 1
6 274 1
6 288 1
6 303 1
6 329 1
6 352 1
6 383 1
6 386 1
7 13 1
7 33 1
7 71 1
7 72 1
7 86 1
7 90 1
7 92 1
7 155 1
7 262 1
7 327 1
7 344 1
8 13 1
8 20 1
8 29 1
8 30 1
8 31 1
8 52 1
8 100 1
8 101 1
8 126 1
8 171 1
8 192 1
8 222 1
8 268 1
8 294 1
8 307 1
8 338 1
8 351 1
8 377 1
9 10 1
9 15 1
9 17 1
9 22 1
9 35 1
9 37 1
9 39 1
9 43 1
9 49 1
9 60 1
9 88 1
9 98 1
9 104 1
9 106 1
9 118 1
9 120 1
9 158 1
9 164 1
9 180 1
9 227 1
9 234 1
9 251 1
9 297 1
9 311 1
9 313 1
10 12 1
10 13 1
10 14 1
10 16 1
10 17 1
10 18 1
10 23 1
10 25 1
10 29 1
10 50 1
10 57 1
10 74 1
10 96 1
10 104 1
10 121 1
10 129 1
10 134 1
10 146 1
10 154 1
10 201 1
10 214 1
10 220 1
10 226 1
10 227 1
10 235 1
10 258 1
10 267 1
10 271 1
10 279 1
10 280 1
10 289 1
10 313 1
11 22 1
11 35 1
11 61 1
11 63 1
11 71 1
11 129 1
11 132 1
11 160 1
11 183 1
11 229 1
11 232 1
11 355 1
11 369 1
11 397 1
12 19 1
12 21 1
12 49 1
12 52 1
12 56 1
12 59 1
12 72 1
12 91 1
12 96 1
12 97 1
12 102 1
12 103 1
12 116 1
12 131 1
12 136 1
12 150 1
12 151 1
12 187 1
12 198 1
12 206 1
12 259 1
12 296 1
12 334 1
12 344 1
12 346 1
12 390 1
12 392 1
13 14 1
13 19 1
13 20 1
13 28 1
13 36 1
13 39 1
13 41 1
13 54 1
13 58 1
13 63 1
13 64 1
13 76 1
13 77 1
13 79 1
13 98 1
13 106 1
13 112 1
13 124 1
13 125 1
13 157 1
13 170 1
13 177 1
13 183 1
13 189 1
13 192 1
13 205 1
13 206 1
13 244 1
13 245 1
13 246 1
13 275 1
13 286 1
13 304 1
13 311 1
13 317 1
13 342 1
13 370 1
13 374 1
13 377 1
13 394 1
14 16 1
14 17 1
14 18 1
14 19 1
14 24 1
14 26 1
14 34 1
14 35 1
14 37 1
14 48 1
14 50 1
14 98 1
14 106 1
14 135 1
14 137 1
14 159 1
14 160 1
14 161 1
14 185 1
14 195 1
14 197 1
14 199 1
14 201 1
14 208 1
14 241 1
14 273 1
14 305 1
14 327 1
14 333 1
14 384 1
15 38 1
15 41 1
15 43 1
15 46 1
15 82 1
15 149 1
15 163 1
15 188 1
16 28 1
16 55 1
16 91 1
16 116 1
16 122 1
16 125 1
16 135 1
16 162 1
16 289 1
17 21 1
17 24 1
17 30 1
17 67 1
17 69 1
17 92 1
17 99 1
17 150 1
17 220 1
17 226 1
17 250 1
17 396 1
17 399 1
18 25 1
18 31 1
18 34 1
18 43 1
18 49 1
18 99 1
18 148 1
18 173 1
18 177 1
18 209 1
18 226 1
18 256 1
18 258 1
18 265 1
18 302 1
18 337 1
18 339 1
18 364 1
18 380 1
18 391 1
19 24 1
19 27 1
19 59 1
19 71 1
19 73 1
19 77 1
19 83 1
19 100 1
19 139 1
19 273 1
19 304 1
19 366 1
19 369 1
19 400 1
20 26 1
20 29 1
20 32 1
20 40 1
20 44 1
20 48 1
20 67 1
20 78 1
20 103 1
20 113 1
20 124 1
20 191 1
20 204 1
20 218 1
20 268 1
20 270 1
21 23 1
21 27 1
21 48 1
21 50 1
21 51 1
21 53 1
21 60 1
21 83 1
21 89 1
21 91 1
21 96 1
21 107 1
21 295 1
21 322 1
22 31 1
22 44 1
22 205 1
22 219 1
22 258 1
22 367 1
23 147 1
24 25 1
24 32 1
24 33 1
24 38 1
24 42 1
24 48 1
24 64 1
24 71 1
24 114 1
24 165 1
24 182 1
24 199 1
25 108 1
25 191 1
25 206 1
25 298 1
25 331 1
25 359 1
26 33 1
26 39 1
26 61 1
26 70 1
26 94 1
26 173 1
26 191 1
26 212 1
26 218 1
26 238 1
26 246 1
26 299 1
26 339 1
26 374 1
27 42 1
27 46 1
27 47 1
27 55 1
27 62 1
27 66 1
27 128 1
27 133 1
27 151 1
27 185 1
27 311 1
27 316 1
27 326 1
27 342 1
27 387 1
28 36 1
28 40 1
28 42 1
28 57 1
28 66 1
28 70 1
28 74 1
28 77 1
28 92 1
28 102 1
28 114 1
28 119 1
28 130 1
28 187 1
28 192 1
28 199 1
28 203 1
28 205 1
28 216 1
28 242 1
28 257 1
28 274 1
28 275 1
28 294 1
28 301 1
28 341 1
29 30 1
29 36 1
29 62 1
29 93 1
29 95 1
29 115 1
29 117 1
29 131 1
29 146 1
29 153 1
29 238 1
29 249 1
29 251 1
29 311 1
29 313 1
29 317 1
29 359 1
29 363 1
29 398 1
30 32 1
30 39 1
30 44 1
30 177 1
30 254 1
30 259 1
30 280 1
30 315 1
30 333 1
30 358 1
30 360 1
30 371 1
31 102 1
31 138 1
31 189 1
31 195 1
31 288 1
31 388 1
32 34 1
32 45 1
32 69 1
32 88 1
32 94 1
32 283 1
32 307 1
32 317 1
33 56 1
33 138 1
33 180 1
33 201 1
33 254 1
33 338 1
33 389 1
33 395 1
34 44 1
34 52 1
34 54 1
34 64 1
34 65 1
34 78 1
34 80 1
34 133 1
34 149 1
34 206 1
34 219 1
34 247 1
34 323 1
34 370 1
34 380 1
35 166 1
35 207 1
35 208 1
35 336 1
36 52 1
36 54 1
36 58 1
36 74 1
36 80 1
36 85 1
36 95 1
36 373 1
37 38 1
37 45 1
37 46 1
37 47 1
37 61 1
37 68 1
37 75 1
37 81 1
37 85 1
37 86 1
37 106 1
37 110 1
37 116 1
37 128 1
37 141 1
37 153 1
37 154 1
37 196 1
37 198 1
37 200 1
37 233 1
37 235 1
37 236 1
37 250 1
37 264 1
37 291 1
37 330 1
37 332 1
37 342 1
37 354 1
37 378 1
37 389 1
37 392 1
38 69 1
38 73 1
38 165 1
38 204 1
38 239 1
38 303 1
39 40 1
39 42 1
39 73 1
39 80 1
39 89 1
39 130 1
39 182 1
39 189 1
39 215 1
39 221 1
39 299 1
40 45 1
40 51 1
40 56 1
40 131 1
40 143 1
40 312 1
40 388 1
41 56 1
41 124 1
41 129 1
41 145 1
41 168 1
41 186 1
41 191 1
41 213 1
41 222 1
41 227 1
41 230 1
41 232 1
41 320 1
41 324 1
41 360 1
41 366 1
42 66 1
42 91 1
42 151 1
42 273 1
42 325 1
42 358 1
42 375 1
43 75 1
43 158 1
43 184 1
43 209 1
43 296 1
43 309 1
43 353 1
43 387 1
44 57 1
44 78 1
44 87 1
44 111 1
44 136 1
44 148 1
44 168 1
44 188 1
44 324 1
44 370 1
44 383 1
45 53 1
45 60 1
45 75 1
45 77 1
45 83 1
45 111 1
45 122 1
45 190 1
45 290 1
45 306 1
45 309 1
45 317 1
45 336 1
45 354 1
46 63 1
46 88 1
46 97 1
46 109 1
46 112 1
46 150 1
46 163 1
46 176 1
46 177 1
46 232 1
46 248 1
46 280 1
46 287 1
46 323 1
46 386 1
46 388 1
47 51 1
47 124 1
47 131 1
47 207 1
47 231 1
47 250 1
47 297 1
47 379 1
48 88 1
48 144 1
48 154 1
48 243 1
48 260 1
48 276 1
48 297 1
48 326 1
49 55 1
49 104 1
49 282 1
49 348 1
50 156 1
50 166 1
50 235 1
50 237 1
50 241 1
51 84 1
51 102 1
51 123 1
51 160 1
51 194 1
52 82 1
52 219 1
52 240 1
52 332 1
52 347 1
53 58 1
53 217 1
54 62 1
54 90 1
54 184 1
54 186 1
54 228 1
54 238 1
54 266 1
55 79 1
55 81 1
55 90 1
55 115 1
55 143 1
55 178 1
55 274 1
55 277 1
56 63 1
56 68 1
56 70 1
56 86 1
56 93 1
56 156 1
56 161 1
56 169 1
56 190 1
56 215 1
56 260 1
56 296 1
56 335 1
56 376 1
56 385 1
56 389 1
57 58 1
57 60 1
57 68 1
57 87 1
57 134 1
57 139 1
57 162 1
57 188 1
57 196 1
57 218 1
57 290 1
57 322 1
57 347 1
57 356 1
57 397 1
58 68 1
58 123 1
58 165 1
58 172 1
58 178 1
58 211 1
58 329 1
58 363 1
58 382 1
59 123 1
59 178 1
59 229 1
59 299 1
59 304 1
59 308 1
60 80 1
60 105 1
60 196 1
60 306 1
60 321 1
61 76 1
61 84 1
61 86 1
61 109 1
61 110 1
61 119 1
61 135 1
61 270 1
61 276 1
61 285 1
61 286 1
61 376 1
62 67 1
62 75 1
62 137 1
62 155 1
62 204 1
62 211 1
62 223 1
62 239 1
62 264 1
62 267 1
62 272 1
62 281 1
62 346 1
62 369 1
62 392 1
63 164 1
63 261 1
63 323 1
63 330 1
63 398 1
64 82 1
64 135 1
64 173 1
64 176 1
64 189 1
64 336 1
64 346 1
65 95 1
65 111 1
65 127 1
65 159 1
65 190 1
65 262 1
65 282 1
65 284 1
65 367 1
65 387 1
66 130 1
66 136 1
66 315 1
66 349 1
67 69 1
67 70 1
67 100 1
67 103 1
67 108 1
67 109 1
67 113 1
67 128 1
67 167 1
67 205 1
68 147 1
68 161 1
68 217 1
69 76 1
69 99 1
69 100 1
69 123 1
69 138 1
69 145 1
69 175 1
69 244 1
69 271 1
69 319 1
69 343 1
69 379 1
70 72 1
70 125 1
70 171 1
70 182 1
70 237 1
70 252 1
70 377 1
71 85 1
71 214 1
71 250 1
71 319 1
72 120 1
72 167 1
72 174 1
72 194 1
72 231 1
72 233 1
72 248 1
72 284 1
72 285 1
72 316 1
72 341 1
72 393 1
73 141 1
73 147 1
73 152 1
73 223 1
73 255 1
73 293 1
73 305 1
73 334 1
73 400 1
74 103 1
74 212 1
74 275 1
74 320 1
74 345 1
75 158 1
75 198 1
75 286 1
75 373 1
76 141 1
76 181 1
76 264 1
76 275 1
76 304 1
76 328 1
77 134 1
77 351 1
77 373 1
79 81 1
79 127 1
79 133 1
79 240 1
79 247 1
79 370 1
80 93 1
80 111 1
80 152 1
80 251 1
80 276 1
80 303 1
80 350 1
80 354 1
81 140 1
81 197 1
81 224 1
81 300 1
81 334 1
81 385 1
82 94 1
82 118 1
82 140 1
82 170 1
82 243 1
82 262 1
82 318 1
82 349 1
82 355 1
82 357 1
83 216 1
83 227 1
84 213 1
84 329 1
85 187 1
85 198 1
85 210 1
85 218 1
85 270 1
85 335 1
86 116 1
86 132 1
86 157 1
86 258 1
86 320 1
87 139 1
87 141 1
87 171 1
87 210 1
87 217 1
87 340 1
87 350 1
87 381 1
87 399 1
88 222 1
88 226 1
88 356 1
88 375 1
89 112 1
89 120 1
89 145 1
89 200 1
89 210 1
89 234 1
89 289 1
89 301 1
89 308 1
89 362 1
90 121 1
90 173 1
90 347 1
91 95 1
91 101 1
91 134 1
91 154 1
91 168 1
91 220 1
91 307 1
91 343 1
92 97 1
92 101 1
92 108 1
92 119 1
92 130 1
92 144 1
92 175 1
92 277 1
92 300 1
92 362 1
92 366 1
93 156 1
93 211 1
93 263 1
93 376 1
93 383 1
94 117 1
94 181 1
94 310 1
94 329 1
94 331 1
95 259 1
96 188 1
96 215 1
96 260 1
96 295 1
96 372 1
97 133 1
97 210 1
98 99 1
98 125 1
98 159 1
98 261 1
99 115 1
99 160 1
99 183 1
99 212 1
99 257 1
100 107 1
100 108 1
100 117 1
100 132 1
100 148 1
100 200 1
100 390 1
100 395 1
101 105 1
101 112 1
101 167 1
101 224 1
101 290 1
101 291 1
101 335 1
101 365 1
102 143 1
102 144 1
102 167 1
102 169 1
102 193 1
102 228 1
102 255 1
102 278 1
102 322 1
102 378 1
103 109 1
103 121 1
103 126 1
103 137 1
103 143 1
103 169 1
103 176 1
103 182 1
103 202 1
103 306 1
103 368 1
104 374 1
106 142 1
106 300 1
106 398 1
107 115 1
107 149 1
107 164 1
107 202 1
107 314 1
108 148 1
108 166 1
108 397 1
109 368 1
110 139 1
110 157 1
110 180 1
110 193 1
110 236 1
110 305 1
111 113 1
111 122 1
112 310 1
112 375 1
113 266 1
114 195 1
115 126 1
115 162 1
115 185 1
115 248 1
115 269 1
115 287 1
115 339 1
116 128 1
116 132 1
116 171 1
117 122 1
117 181 1
117 256 1
117 318 1
117 349 1
118 170 1
118 179 1
118 203 1
118 214 1
118 237 1
118 268 1
118 345 1
118 394 1
119 174 1
119 216 1
119 278 1
119 312 1
119 364 1
120 231 1
120 242 1
121 293 1
122 400 1
123 127 1
123 229 1
123 284 1
123 287 1
123 340 1
123 378 1
124 287 1
124 384 1
125 157 1
125 165 1
125 203 1
125 318 1
126 152 1
126 187 1
126 197 1
126 216 1
126 230 1
126 257 1
126 292 1
126 302 1
126 315 1
127 159 1
127 185 1
127 322 1
127 343 1
127 391 1
128 174 1
129 146 1
129 382 1
130 144 1
130 233 1
130 386 1
131 169 1
131 264 1
131 279 1
131 336 1
131 359 1
131 360 1
131 388 1
132 168 1
132 175 1
132 238 1
132 245 1
132 271 1
132 353 1
132 357 1
134 142 1
134 162 1
134 193 1
134 213 1
135 183 1
137 164 1
137 178 1
137 254 1
137 327 1
137 379 1
138 284 1
140 194 1
140 256 1
140 381 1
141 155 1
141 255 1
142 153 1
142 234 1
142 337 1
143 232 1
143 302 1
144 337 1
145 170 1
145 200 1
145 247 1
145 273 1
146 147 1
147 240 1
147 257 1
147 261 1
147 363 1
147 379 1
148 166 1
148 179 1
148 209 1
148 217 1
148 390 1
149 163 1
149 225 1
149 241 1
149 344 1
149 393 1
151 342 1
152 223 1
152 242 1
152 262 1
152 269 1
153 179 1
153 239 1
153 252 1
153 294 1
154 243 1
154 292 1
155 175 1
158 163 1
158 296 1
159 172 1
159 222 1
160 241 1
160 319 1
162 246 1
162 278 1
163 333 1
164 184 1
166 193 1
166 201 1
166 245 1
167 190 1
167 261 1
167 301 1
167 337 1
168 324 1
168 364 1
168 395 1
171 253 1
172 196 1
172 225 1
172 283 1
173 282 1
174 272 1
175 221 1
175 263 1
175 319 1
176 252 1
176 281 1
177 249 1
178 298 1
178 345 1
180 247 1
180 274 1
180 278 1
181 184 1
181 281 1
181 312 1
181 361 1
182 295 1
183 353 1
183 397 1
184 211 1
184 224 1
184 290 1
185 390 1
186 269 1
186 302 1
186 306 1
188 297 1
188 343 1
189 214 1
189 228 1
189 292 1
190 251 1
190 301 1
190 382 1
191 359 1
193 209 1
193 288 1
193 362 1
194 195 1
194 199 1
194 202 1
194 283 1
194 356 1
194 377 1
195 243 1
196 204 1
197 203 1
197 208 1
197 230 1
197 240 1
197 328 1
198 316 1
199 256 1
201 220 1
201 236 1
201 352 1
202 249 1
203 272 1
203 300 1
203 318 1
203 340 1
203 383 1
203 398 1
204 272 1
205 207 1
205 254 1
205 333 1
205 399 1
205 400 1
206 281 1
206 285 1
207 231 1
207 253 1
207 394 1
208 298 1
209 229 1
210 234 1
211 331 1
212 270 1
214 298 1
214 321 1
216 279 1
217 259 1
217 372 1
219 242 1
221 263 1
222 223 1
222 351 1
222 352 1
222 393 1
223 239 1
223 321 1
224 268 1
224 356 1
224 363 1
224 385 1
225 334 1
227 253 1
227 328 1
227 350 1
228 285 1
228 327 1
228 347 1
229 315 1
229 338 1
229 372 1
230 292 1
230 367 1
231 236 1
231 276 1
231 293 1
233 341 1
233 358 1
235 308 1
235 385 1
235 392 1
239 266 1
239 381 1
242 314 1
242 358 1
243 248 1
243 293 1
243 299 1
243 396 1
245 325 1
246 362 1
246 368 1
247 348 1
248 352 1
248 353 1
249 309 1
254 269 1
258 265 1
260 265 1
260 303 1
260 323 1
262 267 1
262 282 1
262 305 1
262 309 1
262 355 1
262 371 1
262 384 1
264 346 1
265 376 1
268 354 1
269 283 1
270 332 1
271 325 1
271 374 1
273 277 1
274 294 1
275 288 1
275 345 1
275 387 1
279 308 1
279 393 1
280 328 1
281 286 1
282 373 1
283 351 1
287 367 1
289 316 1
293 369 1
293 396 1
294 331 1
296 332 1
297 310 1
299 307 1
302 338 1
304 326 1
304 372 1
305 324 1
305 330 1
305 348 1
307 313 1
308 391 1
310 355 1
310 365 1
310 384 1
313 360 1
313 399 1
316 368 1
317 361 1
321 371 1
322 349 1
327 357 1
330 396 1
333 344 1
334 340 1
336 378 1
336 395 1
337 341 1
338 386 1
341 361 1
342 380 1
343 357 1
354 361 1
354 391 1
360 365 1
366 382 1
379 381 1
